NAME : rnd4_20.tsp
TYPE : TSP
DIMENSION : 20
EDGE_WEIGHT_TYPE : EUC_2D
NODE_COORD_SECTION
0 614 178
1 810 565
2 291 448
3 310 434
4 705 99
5 319 688
6 65 547
7 486 417
8 470 668
9 24 733
10 235 884
11 188 908
12 254 447
13 161 5
14 195 458
15 442 611
16 789 20
17 136 326
18 422 543
19 272 114
